submitit INFO (2023-05-02 18:49:40,203) - Starting with JobEnvironment(job_id=27733, hostname=cpunode2, local_rank=1(5), node=0(1), global_rank=1(5))
submitit INFO (2023-05-02 18:49:40,203) - Loading pickle: /h/30/pashootan/Matrix-Mult-CP/src/../logs/4/3x1x3_9_May02_18:49:36/27733_submitted.pkl
 ! --------------------------------------------------- CP Optimizer 22.1.1.0 --
 ! Satisfiability problem - 135 variables, 81 constraints
 ! TimeLimit            = 7200
 ! Workers              = 8
 ! LogPeriod            = 10000000
 ! RandomSeed           = 9672
 ! Initial process time : 0.00s (0.00s extraction + 0.00s propagation)
 !  . Log search space  : 214.0 (before), 214.0 (after)
 !  . Memory usage      : 530.7 kB (before), 530.7 kB (after)
 ! Using parallel search with 8 workers.
 ! ----------------------------------------------------------------------------
 !               Branches  Non-fixed    W       Branch decision
 *                  43512  0.45s        4        -1  = W2_4
 ! ----------------------------------------------------------------------------
 ! Search completed, 1 solution found.
 ! ----------------------------------------------------------------------------
 ! Number of branches     : 351804
 ! Number of fails        : 156292
 ! Total memory usage     : 10.5 MB (10.4 MB CP Optimizer + 0.1 MB Concert)
 ! Time spent in solve    : 0.45s (0.45s engine + 0.00s extraction)
 ! Search speed (br. / s) : 781786.7
 ! ----------------------------------------------------------------------------
Feasible
Model is valid
Saving solution to: /h/30/pashootan/Matrix-Mult-CP/logs/4/3x1x3_9_May02_18:49:36/27733_1_solution.txt
Saving stats to: /h/30/pashootan/Matrix-Mult-CP/logs/4/3x1x3_9_May02_18:49:36/27733_1_stats.csv
submitit INFO (2023-05-02 18:49:41,077) - Job completed successfully
